# Solution for model johnson8-2-4
# Objective value = 7
x#1 0
x#2 0
x#3 0
x#4 0
x#5 0
x#6 0
x#7 0
x#8 0
x#9 0
x#10 0
x#11 1
x#12 1
x#13 1
x#14 1
x#15 1
x#16 0
x#17 0
x#18 0
x#19 0
x#20 0
x#21 1
x#22 0
x#23 0
x#24 0
x#25 0
x#26 0
x#27 1
x#28 0
